x = 20;
y = 12;
c = 77;
n = 69;

p = [17  20  61  75  81  36  98  34  29  97  24  59  38  60  69  97  79  54  93  62  40  99  11  35  32  65  92  49  15  12  86  48  96  52  48  87  21  19  28  57  43  24  31  12  60  89  76  14  57  89  30  90  66  55  18  64  35  16  94  57  17  46  15  24  20  26  43  50  61];
w = [6  4  1  7  9  1  4  7  8  2  5  3  9  5  10  5  6  6  5  7  6  10  5  1  1  7  7  10  1  7  2  3  1  10  8  3  6  3  3  1  9  3  5  2  10  9  9  3  10  7  7  3  4  8  2  9  10  6  10  3  3  8  7  9  7  7  8  8  4];
s = [1  7  8  10  5  6  3  11  1  5  6  9  2  9  2  10  2  11  9  11  11  8  5  10  4  8  11  11  1  3  12  4  10  5  7  5  1  7  1  11  9  8  2  4  5  6  2  7  8  4  1  2  11  12  3  1  1  11  3  8  7  5  3  6  6  8  2  8  9];
